NAME : portcgen-29-8
COMMENT : portcgen N=29, seed=8
TYPE : TSP
DIMENSION : 29
EDGE_WEIGHT_TYPE : EUC_2D
NODE_COORD_SECTION
1 -176136 10702
2 120485 119844
3 7117 -293090
4 -42162 -59764
5 -326196 109586
6 -13857 28115
7 -39492 -30958
8 140241 -161537
9 123330 -217118
10 98392 71753
11 46983 24631
12 88561 -130674
13 -76506 1301
14 -65133 135435
15 -97694 365379
16 -162158 276033
17 -227522 191033
18 -44578 132516
19 46954 -278467
20 -75349 211828
21 59999 244137
22 -139524 -61296
23 94752 -43882
24 40131 -128749
25 -132019 430567
26 -66764 -121648
27 251361 65914
28 -210959 40080
29 -110354 377372
